3
20
5392
[[154,401,313,867, 37,626,532,238,232,987,350, 12,942,982,805,606,813,310,954,979],
 [846,599,687,133,963,374,468,762,768, 13,650,988, 58, 18,195,394,187,690, 46, 21],
 [ 95, 40, 87, 39, 85, 24, 74, 95,  4,  7, 85, 30,  1, 17, 97, 95, 88, 92, 42,  8]]
[726,115,972,323,436,572,447, 11,522,793,489,947,582, 66,363,830,896,836,642,217]